% File represents an instance of a Composite Structure problem to be solved by a CP framework
% Created on 2025-03-26 10:41:24.536
T = 50;
n = 16;
m = 24;
edges = [(1, 2),
(5, 6),
(9, 10),
(14, 13),
(3, 2),
(6, 7),
(11, 10),
(15, 14),
(3, 4),
(7, 8),
(11, 12),
(15, 16),
(5, 1),
(5, 9),
(9, 13),
(6, 2),
(6, 10),
(14, 10),
(7, 3),
(11, 7),
(15, 11),
(8, 4),
(12, 8),
(16, 12)];
counts = [|14, 8, 14, 8,
|14, 8, 14, 2,
|14, 10, 14, 2,
|12, 8, 12, 2,
|14, 12, 14, 10,
|14, 12, 14, 4,
|14, 12, 14, 2,
|14, 10, 14, 2,
|14, 12, 14, 6,
|12, 12, 12, 4,
|14, 14, 14, 4,
|14, 12, 14, 2,
|14, 12, 14, 2,
|14, 12, 14, 4,
|14, 14, 14, 6,
|14, 14, 14, 2|];
